<?xml version = "1.0" encoding="UTF-8" standalone="yes"?>
<CPLEXSolution version="1.2">
 <header
   problemName="inst_18"
   objectiveValue="52.705882352941174"
   solutionTypeValue="1"
   solutionTypeString="basic"
   solutionStatusValue="1"
   solutionStatusString="optimal"
   solutionMethodString="dual"
   primalFeasible="1"
   dualFeasible="1"
   simplexIterations="1"
   writeLevel="1"/>
 <quality
   epRHS="9.9999999999999995e-07"
   epOpt="9.9999999999999995e-07"
   maxPrimalInfeas="0"
   maxDualInfeas="0"
   maxPrimalResidual="1.9539925233402755e-14"
   maxDualResidual="0"
   maxX="0.62745098039215685"
   maxPi="1.6470588235294117"
   maxSlack="382.33333333333331"
   maxRedCost="52.117647058823536"
   kappa="4.4262630455407965"/>
 <linearConstraints>
  <constraint name="c0" index="0" status="BS" slack="338" dual="-0"/>
  <constraint name="c1" index="1" status="BS" slack="221.54901960784315" dual="-0"/>
  <constraint name="c2" index="2" status="BS" slack="177.50980392156862" dual="-0"/>
  <constraint name="c3" index="3" status="BS" slack="310.74509803921569" dual="-0"/>
  <constraint name="c4" index="4" status="LL" slack="0" dual="1.6470588235294117"/>
  <constraint name="c5" index="5" status="BS" slack="352.50980392156862" dual="-0"/>
  <constraint name="c6" index="6" status="BS" slack="26.03921568627451" dual="-0"/>
  <constraint name="c7" index="7" status="BS" slack="237.31372549019608" dual="-0"/>
  <constraint name="c8" index="8" status="BS" slack="80.529411764705884" dual="-0"/>
  <constraint name="c9" index="9" status="BS" slack="58.843137254901961" dual="-0"/>
  <constraint name="c10" index="10" status="BS" slack="382.33333333333331" dual="-0"/>
  <constraint name="c11" index="11" status="BS" slack="127.68627450980392" dual="-0"/>
  <constraint name="c12" index="12" status="BS" slack="230.54901960784315" dual="-0"/>
 </linearConstraints>
 <variables>
  <variable name="x0" index="0" status="LL" value="0" reducedCost="-52.117647058823536"/>
  <variable name="x1" index="1" status="BS" value="0.62745098039215685" reducedCost="0"/>
  <variable name="x2" index="2" status="LL" value="0" reducedCost="-32.17647058823529"/>
  <variable name="x3" index="3" status="LL" value="0" reducedCost="-12.529411764705884"/>
  <variable name="s0" index="4" status="LL" value="0" reducedCost="0"/>
  <variable name="s1" index="5" status="LL" value="0" reducedCost="0"/>
  <variable name="s2" index="6" status="LL" value="0" reducedCost="0"/>
  <variable name="s3" index="7" status="LL" value="0" reducedCost="0"/>
  <variable name="s4" index="8" status="LL" value="0" reducedCost="-1.6470588235294117"/>
  <variable name="s5" index="9" status="LL" value="0" reducedCost="0"/>
  <variable name="s6" index="10" status="LL" value="0" reducedCost="0"/>
  <variable name="s7" index="11" status="LL" value="0" reducedCost="0"/>
  <variable name="s8" index="12" status="LL" value="0" reducedCost="0"/>
  <variable name="s9" index="13" status="LL" value="0" reducedCost="0"/>
  <variable name="s10" index="14" status="LL" value="0" reducedCost="0"/>
  <variable name="s11" index="15" status="LL" value="0" reducedCost="0"/>
  <variable name="s12" index="16" status="LL" value="0" reducedCost="0"/>
 </variables>
 <objectiveValues>
  <objective index="0" name="" value="52.705882352941174"/>
 </objectiveValues>
</CPLEXSolution>
